SECTION Graph
Nodes 164
Edges 163

E 1 8 289
E 1 93 295
E 1 159 298
E 2 4 294
E 2 15 292
E 2 99 299
E 3 35 290
E 3 62 296
E 4 12 293
E 4 90 294
E 5 55 291
E 5 115 296
E 5 153 297
E 6 53 287
E 6 127 295
E 7 101 294
E 7 151 292
E 8 120 287
E 9 131 288
E 9 145 293
E 10 409 196
E 11 42 295
E 11 136 295
E 12 49 294
E 13 65 292
E 14 96 306
E 14 101 293
E 14 145 295
E 16 29 293
E 16 107 308
E 17 95 289
E 18 85 293
E 18 88 299
E 18 97 296
E 18 136 297
E 19 134 302
E 19 142 300
E 20 131 296
E 21 97 296
E 22 252 191
E 23 83 293
E 23 152 296
E 24 85 292
E 25 79 299
E 26 133 298
E 27 93 298
E 27 155 288
E 28 92 299
E 29 40 295
E 29 128 294
E 30 37 292
E 30 113 294
E 30 144 293
E 31 98 288
E 31 109 291
E 32 48 299
E 32 50 304
E 33 50 301
E 34 53 298
E 35 90 292
E 35 128 300
E 36 144 299
E 38 94 298
E 38 136 297
E 39 139 299
E 39 145 297
E 41 139 299
E 42 105 300
E 42 110 302
E 43 93 300
E 44 83 296
E 45 72 299
E 45 103 300
E 46 137 295
E 46 150 287
E 47 158 295
E 48 71 287
E 48 78 294
E 48 157 294
E 49 98 294
E 49 153 295
E 51 80 299
E 51 104 290
E 51 160 296
E 52 140 299
E 52 154 306
E 53 150 296
E 54 68 296
E 54 142 296
E 55 69 292
E 56 70 293
E 56 75 291
E 57 61 293
E 57 62 289
E 57 103 294
E 58 72 302
E 59 65 297
E 59 414 191
E 60 94 292
E 61 66 304
E 61 129 295
E 61 157 294
E 61 160 290
E 62 106 296
E 63 85 304
E 64 119 305
E 65 81 298
E 65 126 293
E 67 147 304
E 68 121 296
E 68 138 295
E 69 159 293
E 70 92 299
E 72 133 300
E 73 115 297
E 74 97 294
E 75 131 298
E 75 158 301
E 76 139 292
E 77 115 294
E 77 132 299
E 78 84 292
E 78 137 297
E 79 126 297
E 80 130 303
E 81 102 290
E 81 147 296
E 82 148 285
E 85 104 296
E 86 99 298
E 87 102 291
E 87 111 296
E 87 151 297
E 89 104 296
E 91 117 299
E 91 252 192
E 93 125 301
E 95 139 299
E 98 144 292
E 98 409 190
E 100 116 294
E 100 126 298
E 100 156 300
E 100 325 186
E 103 112 300
E 104 140 297
E 108 117 306
E 111 143 304
E 114 414 196
E 115 151 292
E 116 141 298
E 117 124 296
E 117 139 296
E 117 149 301
E 118 136 292
E 119 144 294
E 122 130 304
E 123 325 195
E 126 138 295
E 134 135 301
E 139 152 293
E 146 147 291
E 148 151 297
END
SECTION Terminals
T 1
T 2
T 3
T 4
T 5
T 6
T 7
T 8
T 9
T 10
T 11
T 12
T 13
T 14
T 15
T 16
T 17
T 18
T 19
T 20
T 21
T 22
T 23
T 24
T 25
T 26
T 27
T 28
T 29
T 30
T 31
T 32
T 33
T 34
T 35
T 36
T 37
T 38
T 39
T 40
T 41
T 42
T 43
T 44
T 45
T 46
T 47
T 48
T 49
T 50
T 51
T 52
T 53
T 54
T 55
T 56
T 57
T 58
T 59
T 60
T 61
T 62
T 63
T 64
T 65
T 66
T 67
T 68
T 69
T 70
T 71
T 72
T 73
T 74
T 75
T 76
T 77
T 78
T 79
T 80
T 81
T 82
T 83
T 84
T 85
T 86
T 87
T 88
T 89
T 90
T 91
T 92
T 93
T 94
T 95
T 96
T 97
T 98
T 99
T 100
T 101
T 102
T 103
T 104
T 105
T 106
T 107
T 108
T 109
T 110
T 111
T 112
T 113
T 114
T 115
T 116
T 117
T 118
T 119
T 120
T 121
T 122
T 123
T 124
T 125
T 126
T 127
T 128
T 129
T 130
T 131
T 132
T 133
T 134
T 135
T 136
T 137
T 138
T 139
T 140
T 141
T 142
T 143
T 144
T 145
T 146
T 147
T 148
T 149
T 150
T 151
T 152
T 153
T 154
T 155
T 156
T 157
T 158
T 159
T 160
END
SECTION Cost
47403
END
